<number of tasks>
20

<cycle time>
1000

<order strength>
0,284


<task times>
1 307
2 383
3 566
4 534
5 573
6 637
7 434
8 399
9 834
10 594
11 588
12 310
13 436
14 470
15 320
16 708
17 579
18 477
19 418
20 636

<precedence relations>
1,7
2,7
3,7
4,7
5,8
5,9
5,10
6,11
6,12
7,13
7,14
7,15
7,16
14,18
14,19
16,17
18,20

<end>
